54910 60958
42577 23507
6281 21600
42080 23087
12664 16729
18917 61701
38322 51416
64701 61705
36063 61719
13098 52127
21445 47058
49963 57753
35061 7972
38855 57126
48234 55319
18273 52167
52155 3069
50216 38807
29300 43652
34679 59855
1791 64780
13688 9938
11902 65373
26534 50168
33723 8060
17533 48397
17164 46589
7932 36282
9908 61412
46314 2769
14159 45563
46 13781
22693 49105
25948 29041
49452 31473
14028 10087
35063 54159
4004 6340
29942 43138
44675 24382
14114 53018
36769 48756
59117 27164
63796 7337
30239 46802
32417 2658
42613 32055
41265 3302
37005 51900
23415 56422
34204 12839
26221 22880
57330 42173
24576 34996
55265 35614
27193 52207
46585 25486
39102 56966
